n_res = 4;
rcap = [25, 25, 59, 52];
rtype = [1, 1, 2, 2];
n_tasks = 10;
modes = [ {1, 2, 3}, {4, 5, 6}, {7, 8, 9}, {10, 11, 12}, {13, 14, 15}, {16, 17, 18}, {19, 20, 21}, {22, 23, 24}, {25, 26, 27}, {28, 29, 30} ];
succ = [ {4, 7}, {4, 5, 7}, {5}, {9, 10}, {6}, {8, 9}, {8}, {}, {}, {} ];
n_opt = 30;
dur = [2, 3, 5, 1, 9, 10, 1, 1, 1, 3, 3, 10, 6, 7, 8, 3, 6, 9, 5, 7, 8, 1, 4, 6, 2, 9, 10, 7, 7, 9];
rreq = [|  3,  3,  2,  7,  4,  2,  3,  4,  5,  4,  3,  2,  6,  5,  3,  9,  7,  5,  9,  9,  8, 10, 10, 10,  7,  6,  4,  8,  7,  6
        |  2,  1,  1,  8,  8,  8,  2,  2,  2,  9,  6,  5,  9,  7,  5,  6,  5,  5,  7,  6,  5,  6,  5,  2,  9,  8,  8,  5,  5,  4
        |  7,  5,  3,  7,  5,  4,  6,  9,  4,  4,  5,  3, 10, 10, 10, 10, 10, 10,  2,  2,  1,  8,  5,  3,  6,  5,  4,  7,  8,  4
        |  9,  9,  9,  5,  5,  4,  5,  3,  2,  7,  8,  1,  4,  3,  1,  7,  6,  5,  7,  4,  3, 10, 10,  9,  4,  4,  4,  4,  3,  3 |];
